p cnf 1048 1252
c ind 750 751 752 765 772 798 859 860 873 880 0
c ind 884 886 889 905 907 910 922 923 942 944 0
c ind 948 959 960 964 965 966 970 972 743 858 0
c ind 773 785 744 745 857 748 749 856 1033 1015 0
c ind 1024 1038 1019 1029 1046 1032 1014 1023 1037 1018 0
c ind 1028 1045 1001 1002 1031 1013 1022 1036 1017 1027 0
c ind 1000 1044 1030 1012 1021 1035 999 1016 1026 1043 0
c ind 1007 1011 1041 997 998 996 991 1009 995 1039 0
c ind 994 993 992 1010 1040 1020 1034 1025 1042 1008 0
c ind 989 990 746 747 988 983 987 986 985 984 0
c ind 1004 981 982 974 975 980 1005 979 978 977 0
c ind 976 954 955 953 952 951 973 963 961 962 0
c ind 950 949 971 958 947 969 967 968 956 957 0
c ind 946 945 938 1006 1003 943 941 939 940 937 0
c ind 930 929 936 935 934 933 932 931 928 927 0
c ind 926 925 924 742 917 916 914 915 913 912 0
c ind 918 919 911 909 920 908 921 906 904 902 0
c ind 903 901 900 899 898 897 896 895 893 894 0
c ind 892 891 890 888 887 885 883 881 882 863 0
c ind 879 874 878 875 876 870 877 872 868 869 0
c ind 871 867 862 866 864 865 861 855 848 840 0
c ind 854 853 852 755 851 834 833 832 850 831 0
c ind 849 830 829 828 847 846 845 844 843 842 0
c ind 841 839 838 837 836 835 827 820 812 826 0
c ind 825 824 823 806 805 804 822 803 821 802 0
c ind 801 800 819 818 817 816 815 814 813 811 0
c ind 810 809 808 807 799 797 795 796 786 787 0
c ind 794 793 792 791 790 788 789 782 781 783 0
c ind 784 780 779 778 777 775 776 774 771 770 0
c ind 766 767 768 769 762 764 761 760 763 754 0
c ind 759 753 758 756 757 1 0
c ret 597 598 599 600 601 602 603 604 605 606 0
c ret 607 608 609 610 611 612 613 614 615 616 0
c ret 617 618 619 620 621 622 623 624 625 626 0
c ret 627 628 629 630 631 632 633 634 635 636 0
c ret 637 638 639 640 641 642 643 644 645 646 0
c ret 647 648 649 650 651 652 653 654 655 656 0
c ret 657 658 659 660 661 662 663 664 665 666 0
c ret 667 668 669 670 671 672 673 674 675 676 0
c ret 677 678 679 680 681 682 683 684 685 686 0
c ret 687 688 689 690 691 692 693 694 695 696 0
c ret 697 698 699 700 701 702 703 704 705 706 0
c ret 292 298 299 300 301 302 303 707 304 708 0
c ret 305 306 307 709 308 710 309 310 311 312 0
c ret 313 314 315 316 317 318 319 320 321 711 0
c ret 322 712 323 713 324 714 325 326 327 328 0
c ret 329 330 331 332 333 334 293 715 335 336 0
c ret 337 338 339 716 717 340 341 718 342 719 0
c ret 343 344 345 346 347 348 349 720 350 351 0
c ret 352 353 354 355 721 356 722 357 358 359 0
c ret 360 723 724 361 362 363 364 365 366 367 0
c ret 368 369 370 371 372 373 374 375 725 294 0
c ret 376 726 377 727 728 378 379 380 381 382 0
c ret 383 384 385 386 387 388 729 389 390 391 0
c ret 392 393 394 730 395 731 396 397 732 733 0
c ret 398 399 400 401 402 403 404 405 734 735 0
c ret 406 407 408 736 409 410 411 412 413 414 0
c ret 415 295 416 417 418 419 420 421 422 423 0
c ret 737 424 425 426 738 427 739 428 429 740 0
c ret 741 430 431 432 433 434 435 436 437 438 0
c ret 439 440 441 442 443 444 445 446 447 448 0
c ret 449 450 451 452 453 454 455 456 457 458 0
c ret 459 460 461 462 463 464 465 466 467 468 0
c ret 469 470 471 472 473 474 475 476 477 478 0
c ret 479 480 481 482 483 484 485 486 296 487 0
c ret 488 489 490 491 492 493 494 495 496 497 0
c ret 498 499 500 501 502 503 504 505 506 507 0
c ret 508 509 510 511 512 513 514 515 516 517 0
c ret 518 519 520 521 522 523 524 525 297 526 0
c ret 527 528 529 530 531 532 533 534 535 536 0
c ret 537 538 539 540 541 542 543 544 545 546 0
c ret 547 548 549 550 551 552 553 554 555 556 0
c ret 557 558 559 560 561 562 563 564 565 566 0
c ret 567 568 569 570 571 572 573 574 575 576 0
c ret 577 578 579 580 581 582 583 584 585 586 0
c ret 587 588 589 590 591 592 593 594 595 596 0
2 129 287 -288 0
2 3 287 -288 0
-2 288 0
-2 -287 0
-2 -3 -129 0
3 -4 -54 -119 0
3 4 54 109 0
3 4 54 -119 0
3 -4 -54 109 0
-3 4 -54 0
-3 -4 54 0
-3 -109 119 0
4 5 -11 0
4 5 48 0
-4 -5 0
-4 11 -48 0
5 -7 -8 0
5 -6 -8 0
-5 8 0
-5 6 7 0
6 974 0
6 -975 -981 0
6 975 -982 0
-6 -974 975 982 0
-6 -974 -975 981 0
-6 7 0
7 -983 989 0
7 983 990 0
6 -7 -983 -989 0
6 -7 983 -990 0
8 -9 -10 0
-6 8 -10 0
-8 10 0
6 -8 9 0
-6 9 0
9 983 -990 0
9 -983 -989 0
6 -9 -983 989 0
6 -9 983 990 0
10 974 0
10 -975 981 0
10 975 982 0
-10 -974 975 -982 0
-10 -974 -975 -981 0
11 -12 -47 -1024 0
11 12 -13 -47 0
-11 47 0
-11 -12 1024 0
-11 12 13 0
12 969 -971 0
-12 -969 0
-12 971 0
13 -14 -1023 0
13 14 -15 0
-13 -14 1023 0
-13 14 15 0
14 941 -943 0
-14 -941 0
-14 943 0
15 16 39 46 0
15 16 39 -42 0
-15 -16 0
-15 -39 0
-15 42 -46 0
16 -37 742 -917 0
16 17 742 917 0
-16 -742 0
-16 37 -917 0
-16 -17 917 0
17 -18 -1020 0
-17 1020 0
-17 18 0
18 -19 33 0
-18 19 0
-18 -33 0
19 -26 27 0
19 20 27 -807 0
-19 -27 0
-19 -20 26 0
-19 26 807 0
20 21 0
20 24 -806 0
20 24 812 0
-20 -21 -24 0
-20 -21 806 -812 0
21 -22 23 -800 -807 0
-21 22 0
-21 -23 0
-21 800 0
-21 807 0
22 801 802 803 0
-22 -801 0
-22 -803 0
-22 -802 0
23 804 -805 0
-23 -804 0
-23 805 0
24 25 806 812 -813 0
-24 -806 0
-24 -25 0
-24 813 0
-24 -812 0
25 820 821 0
-25 -820 0
-25 -821 0
22 26 -800 0
23 26 -800 -806 0
-26 800 0
-22 -26 806 0
-22 -23 -26 0
27 29 32 0
27 29 -31 0
27 28 29 0
-27 -29 0
-27 -28 31 -32 0
28 829 830 831 0
-28 -829 0
-28 -831 0
-28 -830 0
28 29 -828 0
29 30 -828 -834 0
-29 828 0
-28 -29 834 0
-28 -29 -30 0
30 832 -833 0
-30 -832 0
-30 833 0
31 840 841 0
31 840 848 849 0
-31 -840 0
-31 -841 -848 0
-31 -841 -849 0
30 32 -828 834 -835 0
-32 835 0
-30 -32 0
-32 828 0
-32 -834 0
33 -34 -774 0
33 -36 -774 0
33 -35 -774 0
-33 774 0
-33 34 35 36 0
34 -775 776 777 0
-34 775 0
-34 -777 0
-34 -776 0
35 780 783 784 0
-35 -780 0
-35 -784 0
-35 -783 0
36 -780 781 782 0
-36 780 0
-36 -782 0
-36 -781 0
37 -38 1021 0
17 37 38 0
-37 -38 -1021 0
-17 -37 38 0
38 883 -885 0
-38 -883 0
-38 885 0
39 -40 -41 -927 0
39 -40 -41 -928 0
-39 41 0
-39 40 0
-39 927 928 0
40 930 931 932 933 0
-40 -933 0
-40 -932 0
-40 -930 0
-40 -931 0
41 -924 -925 -926 929 0
-41 926 0
-41 -929 0
-41 924 0
-41 925 0
37 42 -43 0
-37 -42 0
-42 43 0
43 44 45 0
-43 -44 0
-43 -45 0
44 904 -906 0
-44 -904 0
-44 906 0
45 896 897 898 0
-45 -896 0
-45 -898 0
-45 -897 0
44 46 -742 0
46 -742 1022 0
-46 742 0
-44 -46 -1022 0
47 -938 945 0
-47 938 0
-47 -945 0
48 -49 -938 0
13 15 48 0
13 48 -938 0
15 48 -49 0
-15 -48 938 0
-13 -48 49 0
49 51 945 0
49 -50 51 0
49 51 938 0
-49 -51 0
-49 50 -938 -945 0
50 -946 947 0
-50 946 0
-50 -947 0
51 52 -53 0
-51 -52 0
-51 53 0
52 949 -950 -951 952 0
-52 -949 0
-52 -952 0
-52 951 0
-52 950 0
53 -938 -945 -946 947 0
-53 946 0
-53 -947 0
-53 938 0
-53 945 0
54 -55 -64 0
54 -55 103 0
-54 55 0
-54 64 -103 0
55 56 -62 0
-55 -56 0
-55 62 0
56 -58 -59 0
56 -57 -59 0
-56 59 0
-56 57 58 0
57 524 0
57 -525 -531 0
57 525 -532 0
-57 -524 525 532 0
-57 -524 -525 531 0
-57 58 0
58 -533 539 0
58 533 540 0
57 -58 -533 -539 0
57 -58 533 -540 0
-57 59 -60 0
59 -60 -61 0
-59 60 0
57 -59 61 0
60 524 0
60 -525 531 0
60 525 532 0
-60 -524 525 -532 0
-60 -524 -525 -531 0
-57 61 0
61 533 -540 0
61 -533 -539 0
57 -61 -533 539 0
57 -61 533 540 0
62 -63 -553 -582 -669 0
-62 63 0
-62 553 0
-62 669 0
-62 582 0
63 -611 -640 0
-63 611 0
-63 640 0
64 -65 -102 -719 0
64 65 -66 -102 0
-64 102 0
-64 -65 719 0
-64 65 66 0
65 519 -521 0
-65 -519 0
-65 521 0
66 -67 -718 0
66 67 -68 0
-66 -67 718 0
-66 67 68 0
67 491 -493 0
-67 -491 0
-67 493 0
68 69 94 101 0
68 69 94 -97 0
-68 -69 0
-68 -94 0
-68 97 -101 0
69 -92 292 -467 0
69 70 292 467 0
-69 -292 0
-69 92 -467 0
-69 -70 467 0
70 -71 -715 0
-70 715 0
-70 71 0
71 72 -76 0
-71 -72 0
-71 76 0
72 -73 -324 0
72 -75 -324 0
72 -74 -324 0
-72 324 0
-72 73 74 75 0
73 -325 326 327 0
-73 325 0
-73 -327 0
-73 -326 0
74 330 333 334 0
-74 -330 0
-74 -334 0
-74 -333 0
75 -330 331 332 0
-75 330 0
-75 -332 0
-75 -331 0
76 77 -84 0
76 77 87 -357 0
-76 -77 0
-76 84 -87 0
-76 84 357 0
77 -78 81 0
77 81 378 0
-77 -81 0
-77 78 -378 0
78 -80 381 384 0
78 -79 -80 381 0
-78 -381 0
-78 80 0
-78 79 -384 0
79 382 -383 0
-79 -382 0
-79 383 0
80 379 380 0
-80 -379 0
-80 -380 0
79 -80 81 82 -83 0
80 -81 0
-81 -82 0
-79 -81 0
-81 83 0
82 390 391 0
82 390 398 399 0
-82 -390 0
-82 -391 -398 0
-82 -391 -399 0
83 -378 381 384 -385 0
-83 385 0
-83 -384 0
-83 378 0
-83 -381 0
84 85 -350 0
84 86 -350 -356 0
-84 350 0
-84 -85 356 0
-84 -85 -86 0
85 351 352 353 0
-85 -351 0
-85 -353 0
-85 -352 0
86 354 -355 0
-86 -354 0
-86 355 0
87 88 91 0
-87 -88 0
-87 -91 0
88 -89 -90 -370 0
88 -89 -90 -371 0
-88 90 0
-88 89 0
-88 370 371 0
-85 86 89 -350 -357 0
85 -89 0
-86 -89 0
-89 350 0
-89 357 0
90 356 362 -363 0
-90 363 0
-90 -362 0
-90 -356 0
-89 91 356 -362 0
89 -91 0
-91 362 0
-91 -356 0
92 -93 716 0
70 92 93 0
-92 -93 -716 0
-70 -92 93 0
93 433 -435 0
-93 -433 0
-93 435 0
94 -95 -96 -477 0
94 -95 -96 -478 0
-94 96 0
-94 95 0
-94 477 478 0
95 480 481 482 483 0
-95 -483 0
-95 -482 0
-95 -480 0
-95 -481 0
96 -474 -475 -476 479 0
-96 476 0
-96 -479 0
-96 474 0
-96 475 0
92 97 -98 0
-92 -97 0
-97 98 0
98 99 100 0
-98 -99 0
-98 -100 0
99 446 447 448 0
-99 -446 0
-99 -448 0
-99 -447 0
100 454 -456 0
-100 -454 0
-100 456 0
100 101 -292 0
101 -292 717 0
-101 292 0
-100 -101 -717 0
102 -488 495 0
-102 488 0
-102 -495 0
103 -104 -488 0
66 68 103 0
66 103 -488 0
68 103 -104 0
-68 -103 488 0
-66 -103 104 0
104 106 495 0
104 -105 106 0
104 106 488 0
-104 -106 0
-104 105 -488 -495 0
105 -496 497 0
-105 496 0
-105 -497 0
106 107 -108 0
-106 -107 0
-106 108 0
107 499 -500 -501 502 0
-107 -499 0
-107 -502 0
-107 501 0
-107 500 0
108 -488 -495 -496 497 0
-108 496 0
-108 -497 0
-108 488 0
-108 495 0
5 109 -110 0
5 109 118 0
-5 -109 0
-109 110 -118 0
12 -47 110 -111 0
-12 -47 110 -1046 0
47 -110 0
12 -110 111 0
-12 -110 1046 0
-14 111 -1045 0
14 111 -112 0
-14 -111 1045 0
14 -111 112 0
39 112 113 117 0
39 112 113 -116 0
-39 -112 0
-112 -113 0
-112 116 -117 0
113 -115 742 -917 0
113 114 742 917 0
-113 -742 0
-113 115 -917 0
-113 -114 917 0
-18 114 -1042 0
-114 1042 0
18 -114 0
-38 115 1043 0
38 114 115 0
-38 -115 -1043 0
38 -114 -115 0
-43 115 116 0
43 -116 0
-115 -116 0
44 117 -742 0
117 -742 1044 0
-117 742 0
-44 -117 -1044 0
-49 112 118 0
111 118 -938 0
-49 118 -938 0
111 112 118 0
49 -111 -118 0
-112 -118 938 0
-55 119 -120 0
-55 119 128 0
55 -119 0
-119 120 -128 0
65 -102 120 -121 0
-65 -102 120 -741 0
102 -120 0
65 -120 121 0
-65 -120 741 0
-67 121 -740 0
67 121 -122 0
-67 -121 740 0
67 -121 122 0
94 122 123 127 0
94 122 123 -126 0
-94 -122 0
-122 -123 0
-122 126 -127 0
123 -125 292 -467 0
123 124 292 467 0
-123 -292 0
-123 125 -467 0
-123 -124 467 0
-71 124 -737 0
-124 737 0
71 -124 0
-93 125 738 0
93 124 125 0
-93 -125 -738 0
93 -124 -125 0
-98 125 126 0
98 -126 0
-125 -126 0
100 127 -292 0
127 -292 739 0
-127 292 0
-100 -127 -739 0
-104 122 128 0
121 128 -488 0
-104 128 -488 0
121 122 128 0
104 -121 -128 0
-122 -128 488 0
129 130 139 -148 -266 0
129 -130 -139 -148 -266 0
-129 266 0
-129 -130 139 0
-129 148 0
-129 130 -139 0
5 130 -131 0
5 130 138 0
-5 -130 0
-130 131 -138 0
12 -47 131 -132 0
-12 -47 131 -1019 0
47 -131 0
12 -131 132 0
-12 -131 1019 0
-14 132 -1018 0
14 132 -133 0
-14 -132 1018 0
14 -132 133 0
39 133 134 137 0
39 133 134 -136 0
-39 -133 0
-133 -134 0
-133 136 -137 0
134 -135 742 -917 0
18 134 742 917 0
-134 -742 0
-134 135 -917 0
-18 -134 917 0
-38 135 1016 0
18 38 135 0
-38 -135 -1016 0
-18 38 -135 0
-43 135 136 0
43 -136 0
-135 -136 0
44 137 -742 0
137 -742 1017 0
-137 742 0
-44 -137 -1017 0
-49 133 138 0
132 138 -938 0
-49 138 -938 0
132 133 138 0
49 -132 -138 0
-133 -138 938 0
-55 139 -140 0
-55 139 147 0
55 -139 0
-139 140 -147 0
65 -102 140 -141 0
-65 -102 140 -714 0
102 -140 0
65 -140 141 0
-65 -140 714 0
-67 141 -713 0
67 141 -142 0
-67 -141 713 0
67 -141 142 0
94 142 143 146 0
94 142 143 -145 0
-94 -142 0
-142 -143 0
-142 145 -146 0
143 -144 292 -467 0
71 143 292 467 0
-143 -292 0
-143 144 -467 0
-71 -143 467 0
-93 144 711 0
71 93 144 0
-93 -144 -711 0
-71 93 -144 0
-98 144 145 0
98 -145 0
-144 -145 0
100 146 -292 0
146 -292 712 0
-146 292 0
-100 -146 -712 0
-104 142 147 0
141 147 -488 0
-104 147 -488 0
141 142 147 0
104 -141 -147 0
-142 -147 488 0
148 149 162 -175 -227 0
148 -149 -162 -175 -227 0
-148 227 0
-148 -149 162 0
-148 175 0
-148 149 -162 0
5 149 -160 0
5 149 -159 0
5 149 -150 0
-5 -149 0
-149 150 159 160 0
150 153 -154 0
-43 150 151 -154 0
-150 154 0
-150 -151 -153 0
43 -150 -153 0
-38 151 1026 0
38 151 152 0
-38 -151 -1026 0
38 -151 -152 0
-18 152 -1025 0
-152 1025 0
18 -152 0
44 153 -742 0
153 -742 1027 0
-153 742 0
-44 -153 -1027 0
154 155 -156 0
-154 -155 0
-154 156 0
-151 155 742 -917 0
152 155 742 917 0
-155 -742 0
151 -155 -917 0
-152 -155 917 0
39 156 157 0
-39 -156 0
-156 -157 0
-14 157 -938 0
157 -158 -938 0
-157 938 0
14 -157 158 0
-12 51 158 945 0
-50 51 158 -945 0
-51 -158 0
50 -158 -945 0
12 -158 945 0
-12 -47 159 -1029 0
-159 1029 0
12 -159 0
47 -159 0
-14 160 -161 -1028 0
-160 1028 0
14 -160 0
-160 161 0
158 161 -938 0
-161 938 0
-158 -161 0
-55 162 -163 0
-55 162 -173 0
-55 162 -172 0
55 -162 0
-162 163 172 173 0
163 166 -167 0
-98 163 164 -167 0
-163 167 0
-163 -164 -166 0
98 -163 -166 0
-93 164 721 0
93 164 165 0
-93 -164 -721 0
93 -164 -165 0
-71 165 -720 0
-165 720 0
71 -165 0
100 166 -292 0
166 -292 722 0
-166 292 0
-100 -166 -722 0
167 168 -169 0
-167 -168 0
-167 169 0
-164 168 292 -467 0
165 168 292 467 0
-168 -292 0
164 -168 -467 0
-165 -168 467 0
94 169 170 0
-94 -169 0
-169 -170 0
-67 170 -488 0
170 -171 -488 0
-170 488 0
67 -170 171 0
-65 106 171 495 0
-105 106 171 -495 0
-106 -171 0
105 -171 -495 0
65 -171 495 0
-65 -102 172 -724 0
-172 724 0
65 -172 0
102 -172 0
-67 173 -174 -723 0
-173 723 0
67 -173 0
-173 174 0
171 174 -488 0
-174 488 0
-171 -174 0
175 176 199 207 -216 0
175 176 -199 -207 -216 0
-175 216 0
-175 -199 207 0
-175 -176 0
-175 199 -207 0
176 177 -187 0
176 -177 187 0
-176 -177 -187 0
-176 177 187 0
177 178 -185 742 0
177 178 -184 -185 0
-177 185 0
-177 -178 0
-177 184 -742 0
178 179 183 0
178 181 183 0
178 179 -181 742 0
-178 -179 -181 0
-178 181 -183 0
-178 -183 -742 0
-19 179 -1003 0
-19 33 179 180 0
19 -179 0
-179 -180 1003 0
-33 -179 1003 0
180 753 1040 0
-180 -753 0
-180 -1040 0
181 -182 917 918 921 0
-181 182 0
-181 -921 0
-181 -917 0
-181 -918 0
182 919 920 0
-182 -919 0
-182 -920 0
183 861 -1041 0
-179 183 -861 0
179 -183 -861 0
-183 861 1041 0
45 -183 184 0
-45 -184 0
183 -184 0
8 185 -186 0
7 185 -186 -974 0
-185 186 0
-7 -8 -185 0
-8 -185 974 0
39 53 186 0
39 52 186 0
-39 -186 0
-52 -53 -186 0
187 188 -194 -198 0
187 188 -194 292 0
-187 194 0
-187 -188 0
-187 198 -292 0
188 189 193 0
188 191 193 0
188 189 -191 292 0
-188 -189 -191 0
-188 191 -193 0
-188 -193 -292 0
-76 189 -698 0
72 -76 189 190 0
76 -189 0
-189 -190 698 0
-72 -189 698 0
190 303 735 0
-190 -303 0
-190 -735 0
191 -192 467 468 0
-191 192 0
-191 -468 0
-191 -467 0
192 469 470 471 0
-192 -469 0
-192 -471 0
-192 -470 0
193 411 -736 0
-189 193 -411 0
189 -193 -411 0
-193 411 736 0
59 194 -195 0
58 194 -195 -524 0
-194 195 0
-58 -59 -194 0
-59 -194 524 0
195 -196 -197 0
-195 196 0
-195 197 0
94 108 196 0
94 107 196 0
-94 -196 0
-107 -108 -196 0
-63 197 -553 -582 -669 0
63 -197 0
-197 553 0
-197 669 0
-197 582 0
99 -193 198 0
-99 -198 0
193 -198 0
-185 199 200 0
185 -199 0
-199 -200 0
181 200 -201 0
200 205 206 0
200 -201 205 0
-200 201 -206 0
-181 -200 -205 0
-200 201 -205 0
201 202 -861 0
-19 201 -204 861 0
-201 -202 -861 0
19 -201 861 0
-201 204 861 0
-19 202 -203 0
19 -202 0
-202 203 0
203 -1003 -1005 0
33 203 1003 0
203 -1003 -1009 0
-33 -203 1003 0
-203 -1003 1005 1009 0
204 -1003 1005 1011 0
-204 1003 0
-204 -1011 0
-204 -1005 0
181 205 742 0
-202 205 742 0
-205 -742 0
-181 202 -205 0
45 206 -742 0
-206 742 0
-45 -206 0
207 -212 292 0
99 207 208 -212 0
-207 212 0
-207 -208 -292 0
-99 -207 -292 0
208 209 -411 0
-76 208 -211 411 0
-208 -209 -411 0
76 -208 411 0
-208 211 411 0
-76 209 -210 0
76 -209 0
-209 210 0
210 -698 -700 0
72 210 698 0
210 -698 -704 0
-72 -210 698 0
-210 -698 700 704 0
211 -698 700 706 0
-211 698 0
-211 -706 0
-211 -700 0
-194 212 -213 214 0
-194 208 212 214 0
194 -212 0
-212 -214 0
-208 -212 213 0
213 467 468 0
-213 -467 0
-213 -468 0
209 214 -215 0
192 -208 214 0
192 214 -215 0
-208 209 214 0
208 -214 215 0
-192 -209 -214 0
-191 215 292 0
-215 -292 0
191 -215 0
216 217 220 223 -224 0
216 -217 -220 223 -224 0
-216 -223 0
-216 217 -220 0
-216 224 0
-216 -217 220 0
-76 -194 217 -218 219 0
-217 218 0
-217 -219 0
76 -217 0
194 -217 0
218 -698 700 0
-218 698 0
-218 -700 0
-99 219 -292 0
-219 292 0
99 -219 0
-19 -185 220 -221 222 0
-220 221 0
-220 -222 0
19 -220 0
185 -220 0
221 -1003 1005 0
-221 1003 0
-221 -1005 0
-45 222 -742 0
-222 742 0
45 -222 0
-7 -9 -10 223 0
7 -223 0
9 -223 0
10 -223 0
20 27 224 -225 0
-26 27 224 -225 0
-224 225 0
-27 -224 0
-20 26 -224 0
33 -186 222 225 -226 0
186 -225 0
-222 -225 0
-33 -225 0
-225 226 0
226 -745 -746 0
226 -744 747 0
226 -744 -746 0
226 -745 747 0
-226 746 -747 0
-226 744 745 0
227 228 237 -246 -256 0
227 -228 -237 -246 -256 0
227 228 237 246 256 0
227 -228 -237 246 256 0
-227 228 -237 0
-227 -228 237 0
-227 246 -256 0
-227 -246 256 0
5 228 -236 0
5 228 -235 0
5 228 -229 0
-5 -228 0
-228 229 235 236 0
229 232 -233 0
-43 229 230 -233 0
-229 233 0
-229 -230 -232 0
43 -229 -232 0
-38 230 1035 0
38 230 231 0
-38 -230 -1035 0
38 -230 -231 0
-18 231 -1034 0
-231 1034 0
18 -231 0
44 232 -742 0
232 -742 1036 0
-232 742 0
-44 -232 -1036 0
-156 233 234 0
156 -233 0
-233 -234 0
-230 234 742 -917 0
231 234 742 917 0
-234 -742 0
230 -234 -917 0
-231 -234 917 0
-12 -47 235 -1038 0
-235 1038 0
12 -235 0
47 -235 0
-14 -161 236 -1037 0
-236 1037 0
14 -236 0
161 -236 0
-55 237 -238 0
-55 237 -245 0
-55 237 -244 0
55 -237 0
-237 238 244 245 0
238 241 -242 0
-98 238 239 -242 0
-238 242 0
-238 -239 -241 0
98 -238 -241 0
-93 239 730 0
93 239 240 0
-93 -239 -730 0
93 -239 -240 0
-71 240 -729 0
-240 729 0
71 -240 0
100 241 -292 0
241 -292 731 0
-241 292 0
-100 -241 -731 0
-169 242 243 0
169 -242 0
-242 -243 0
-239 243 292 -467 0
240 243 292 467 0
-243 -292 0
239 -243 -467 0
-240 -243 467 0
-65 -102 244 -733 0
-244 733 0
65 -244 0
102 -244 0
-67 -174 245 -732 0
-245 732 0
67 -245 0
174 -245 0
56 -197 246 247 255 0
197 -246 0
-246 -255 0
-56 -246 0
-246 -247 0
247 249 488 0
67 247 248 249 0
-247 -249 0
-247 -248 -488 0
-67 -247 -488 0
-65 248 495 -728 0
65 -248 0
-248 728 0
-248 -495 0
94 249 250 254 0
94 249 250 -253 0
-94 -249 0
-249 -250 0
-249 253 -254 0
250 -252 292 -467 0
250 251 292 467 0
-250 -292 0
-250 252 -467 0
-250 -251 467 0
-71 251 -296 0
-251 296 0
71 -251 0
-93 252 725 0
93 251 252 0
-93 -252 -725 0
93 -251 -252 0
-98 252 253 0
98 -253 0
-252 -253 0
100 254 -292 0
254 -292 726 0
-254 292 0
-100 -254 -726 0
-170 -171 248 255 0
-170 248 255 727 0
170 -255 0
-248 -255 0
171 -255 -727 0
5 256 257 265 0
5 157 256 257 0
-5 -256 0
-256 -257 0
-157 -256 -265 0
257 259 938 0
14 257 258 259 0
-257 -259 0
-257 -258 -938 0
-14 -257 -938 0
-12 258 945 -1033 0
12 -258 0
-258 1033 0
-258 -945 0
39 259 260 264 0
39 259 260 -263 0
-39 -259 0
-259 -260 0
-259 263 -264 0
260 -262 742 -917 0
260 261 742 917 0
-260 -742 0
-260 262 -917 0
-260 -261 917 0
-18 261 -746 0
-261 746 0
18 -261 0
-38 262 1030 0
38 261 262 0
-38 -262 -1030 0
38 -261 -262 0
-43 262 263 0
43 -263 0
-262 -263 0
44 264 -742 0
264 -742 1031 0
-264 742 0
-44 -264 -1031 0
-158 258 265 0
258 265 1032 0
-258 -265 0
158 -265 -1032 0
119 266 267 277 0
-109 266 -267 -277 0
-109 266 267 277 0
119 266 -267 -277 0
-266 267 -277 0
-266 -267 277 0
109 -119 -266 0
5 267 -268 0
5 267 276 0
-5 -267 0
-267 268 -276 0
12 -47 268 -269 0
-12 -47 268 -1015 0
47 -268 0
12 -268 269 0
-12 -268 1015 0
-14 269 -1014 0
14 269 -270 0
-14 -269 1014 0
14 -269 270 0
39 270 271 275 0
39 270 271 -274 0
-39 -270 0
-270 -271 0
-270 274 -275 0
271 272 -742 1013 0
44 271 272 -742 0
-271 742 0
-271 -272 0
-44 -271 -1013 0
-43 272 273 0
43 -272 0
-272 -273 0
18 38 273 0
-38 273 1012 0
38 273 747 0
-38 -273 -1012 0
-18 38 -273 -747 0
-18 38 274 -747 0
-18 274 -747 917 0
18 -274 0
-274 747 0
-38 -274 -917 0
275 742 1012 0
275 742 917 0
38 275 742 0
-275 -742 0
-38 -275 -917 -1012 0
-49 270 276 0
269 276 -938 0
-49 276 -938 0
269 270 276 0
49 -269 -276 0
-270 -276 938 0
-55 277 -278 0
-55 277 286 0
55 -277 0
-277 278 -286 0
65 -102 278 -279 0
-65 -102 278 -710 0
102 -278 0
65 -278 279 0
-65 -278 710 0
-67 279 -709 0
67 279 -280 0
-67 -279 709 0
67 -279 280 0
94 280 281 285 0
94 280 281 -284 0
-94 -280 0
-280 -281 0
-280 284 -285 0
281 282 -292 708 0
100 281 282 -292 0
-281 292 0
-281 -282 0
-100 -281 -708 0
-98 282 283 0
98 -282 0
-282 -283 0
71 93 283 0
-93 283 707 0
93 283 297 0
-93 -283 -707 0
-71 93 -283 -297 0
-71 93 284 -297 0
-71 284 -297 467 0
71 -284 0
-284 297 0
-93 -284 -467 0
285 292 707 0
285 292 467 0
93 285 292 0
-285 -292 0
-93 -285 -467 -707 0
-104 280 286 0
279 286 -488 0
-104 286 -488 0
279 280 286 0
104 -279 -286 0
-280 -286 488 0
-58 -60 -61 287 0
58 -287 0
60 -287 0
61 -287 0
72 77 288 289 -290 0
-288 290 0
-288 -289 0
-72 -288 0
-77 -288 0
84 88 91 289 0
-84 -289 0
-91 -289 0
-88 -289 0
-62 -196 219 290 -291 0
-290 291 0
62 -290 0
196 -290 0
-219 -290 0
291 -295 -296 0
291 -294 297 0
291 -294 -296 0
291 -295 297 0
-291 296 -297 0
-291 294 295 0
1 2 0
-1 -2 0
1047 0

